Sr3 Li8 Eu1 Al8 N8 O8
1.0
   7.9590000000018497    0.0000000000000000    0.0000000000000000
   0.0000000000000000    7.9590000000018497    0.0000000000000000
   0.0000000000000000    0.0000000000000000    6.3679999999910546
Eu Sr Li Al N O
1 3 8 8 8 8
direct
   0.4999999999999999    0.0000000000000000    0.2500000000000000 Eu
   0.4999999999999999    0.0000000000000000    0.7500000000000000 Sr
   0.9999999999999999    0.5000000000000000    0.0001189059622912 Sr
   0.9999999999999999    0.5000000000000000    0.4998810940377088 Sr
   0.1274437471363363    0.8253621320842476    0.2500000000000000 Li
   0.1270463864138347    0.8250228232921544    0.7500000000000000 Li
   0.8725562528636637    0.1746378679157525    0.2500000000000000 Li
   0.8729536135861652    0.1749771767078456    0.7500000000000000 Li
   0.1749916984448938    0.1272896715538103    0.0002873957422974 Li
   0.1749916984448938    0.1272896715538103    0.4997126042577025 Li
   0.8250083015551062    0.8727103284461897    0.0002873957422974 Li
   0.8250083015551062    0.8727103284461897    0.4997126042577025 Li
   0.3517380667366818    0.6824199563117939    0.0002128916361664 Al
   0.3517380667366818    0.6824199563117939    0.4997871083638335 Al
   0.6482619332633182    0.3175800436882062    0.0002128916361664 Al
   0.6482619332633182    0.3175800436882062    0.4997871083638335 Al
   0.3178057668489344    0.3510908108850976    0.2500000000000000 Al
   0.3177745606486843    0.3515421706572649    0.7500000000000000 Al
   0.6821942331510655    0.6489091891149024    0.2500000000000000 Al
   0.6822254393513156    0.6484578293427352    0.7500000000000000 Al
   0.5843047654152553    0.7309101138502384    0.9999282143618553 N
   0.5843047654152553    0.7309101138502384    0.5000717856381447 N
   0.4156952345847446    0.2690898861497616    0.9999282143618553 N
   0.4156952345847446    0.2690898861497616    0.5000717856381447 N
   0.2701971262398285    0.5841021878737663    0.2500000000000000 N
   0.2704128644438369    0.5843708942945341    0.7500000000000000 N
   0.7298028737601714    0.4158978121262337    0.2500000000000000 N
   0.7295871355561629    0.4156291057054659    0.7500000000000000 N
   0.2525092003181367    0.8869960578281555    0.9999173408121046 O
   0.2525092003181367    0.8869960578281555    0.5000826591878954 O
   0.7474907996818632    0.1130039421718444    0.9999173408121046 O
   0.7474907996818632    0.1130039421718444    0.5000826591878954 O
   0.1127981501137952    0.2530903130766972    0.2500000000000000 O
   0.1127312159481851    0.2534913828629982    0.7500000000000000 O
   0.8872018498862048    0.7469096869233028    0.2500000000000000 O
   0.8872687840518148    0.7465086171370019    0.7500000000000000 O
